\ENCODING=ISO-8859-1
\Problem name: IloCplex

Minimize
 obj1: X(0)#6
Subject To
 c1:  X(0)#0 <= 0
 c2:  X(0)#1 <= 5
 c3:  X(0)#2 <= 7
 c4:  X(0)#3 <= 4
 c5:  X(0)#4 <= 0
 c6:  X(0)#5 <= 0
 c7:  X(0)#6 <= 16
 c8:  X(0)#1 + X(0)#2 + X(0)#3 + X(0)#4 + X(0)#5 + X(0)#6 - X(1)#7 - X(2)#14
      - X(3)#21 - X(4)#28 - X(5)#35 - X(6)#42  = 16
 c9:  X(1)#7 <= 0
 c10: X(1)#8 <= 0
 c11: X(1)#9 <= 1
 c12: X(1)#10 <= 0
 c13: X(1)#11 <= 3
 c14: X(1)#12 <= 0
 c15: X(1)#13 <= 0
 c16: - X(0)#1 + X(1)#7 + X(1)#9 + X(1)#10 + X(1)#11 + X(1)#12 + X(1)#13
      - X(2)#15 - X(3)#22 - X(4)#29 - X(5)#36 - X(6)#43  = 0
 c17: X(2)#14 <= 0
 c18: X(2)#15 <= 0
 c19: X(2)#16 <= 0
 c20: X(2)#17 <= 2
 c21: X(2)#18 <= 4
 c22: X(2)#19 <= 5
 c23: X(2)#20 <= 0
 c24: - X(0)#2 - X(1)#9 + X(2)#14 + X(2)#15 + X(2)#17 + X(2)#18 + X(2)#19
      + X(2)#20 - X(3)#23 - X(4)#30 - X(5)#37 - X(6)#44  = 0
 c25: X(3)#21 <= 0
 c26: X(3)#22 <= 0
 c27: X(3)#23 <= 0
 c28: X(3)#24 <= 0
 c29: X(3)#25 <= 0
 c30: X(3)#26 <= 4
 c31: X(3)#27 <= 0
 c32: - X(0)#3 - X(1)#10 - X(2)#17 + X(3)#21 + X(3)#22 + X(3)#23 + X(3)#25
      + X(3)#26 + X(3)#27 - X(4)#31 - X(5)#38 - X(6)#45  = 0
 c33: X(4)#28 <= 0
 c34: X(4)#29 <= 0
 c35: X(4)#30 <= 0
 c36: X(4)#31 <= 0
 c37: X(4)#32 <= 0
 c38: X(4)#33 <= 0
 c39: X(4)#34 <= 9
 c40: - X(0)#4 - X(1)#11 - X(2)#18 - X(3)#25 + X(4)#28 + X(4)#29 + X(4)#30
      + X(4)#31 + X(4)#33 + X(4)#34 - X(5)#39 - X(6)#46  = 0
 c41: X(5)#35 <= 0
 c42: X(5)#36 <= 0
 c43: X(5)#37 <= 0
 c44: X(5)#38 <= 0
 c45: X(5)#39 <= 1
 c46: X(5)#40 <= 0
 c47: X(5)#41 <= 6
 c48: - X(0)#5 - X(1)#12 - X(2)#19 - X(3)#26 - X(4)#33 + X(5)#35 + X(5)#36
      + X(5)#37 + X(5)#38 + X(5)#39 + X(5)#41 - X(6)#47  = 0
 c49: X(6)#42 <= 0
 c50: X(6)#43 <= 0
 c51: X(6)#44 <= 0
 c52: X(6)#45 <= 0
 c53: X(6)#46 <= 0
 c54: X(6)#47 <= 0
 c55: X(6)#48 <= 0
 c56: - X(0)#6 - X(1)#13 - X(2)#20 - X(3)#27 - X(4)#34 - X(5)#41 + X(6)#42
      + X(6)#43 + X(6)#44 + X(6)#45 + X(6)#46 + X(6)#47  = -16
End
